<instance format="XCSP3" type="COP">
  <variables>
    <array id="x" size="[125]"> 0..124 </array>
  </variables>
  <constraints>
    <group>
      <intension> ne(%0,%1) </intension>
      <args> x[0] x[4] </args>
      <args> x[0] x[28] </args>
      <args> x[0] x[43] </args>
      <args> x[0] x[52] </args>
      <args> x[0] x[78] </args>
      <args> x[0] x[79] </args>
      <args> x[0] x[112] </args>
      <args> x[0] x[119] </args>
      <args> x[0] x[122] </args>
      <args> x[1] x[5] </args>
      <args> x[1] x[10] </args>
      <args> x[1] x[16] </args>
      <args> x[1] x[26] </args>
      <args> x[1] x[31] </args>
      <args> x[1] x[39] </args>
      <args> x[1] x[45] </args>
      <args> x[1] x[78] </args>
      <args> x[1] x[104] </args>
      <args> x[2] x[24] </args>
      <args> x[2] x[34] </args>
      <args> x[2] x[37] </args>
      <args> x[2] x[40] </args>
      <args> x[2] x[55] </args>
      <args> x[2] x[61] </args>
      <args> x[2] x[62] </args>
      <args> x[2] x[87] </args>
      <args> x[2] x[111] </args>
      <args> x[2] x[114] </args>
      <args> x[2] x[115] </args>
      <args> x[3] x[7] </args>
      <args> x[3] x[8] </args>
      <args> x[3] x[37] </args>
      <args> x[3] x[68] </args>
      <args> x[3] x[71] </args>
      <args> x[3] x[98] </args>
      <args> x[3] x[104] </args>
      <args> x[3] x[112] </args>
      <args> x[4] x[12] </args>
      <args> x[4] x[18] </args>
      <args> x[4] x[29] </args>
      <args> x[4] x[34] </args>
      <args> x[4] x[64] </args>
      <args> x[4] x[76] </args>
      <args> x[4] x[81] </args>
      <args> x[4] x[83] </args>
      <args> x[4] x[91] </args>
      <args> x[4] x[117] </args>
      <args> x[4] x[120] </args>
      <args> x[5] x[8] </args>
      <args> x[5] x[26] </args>
      <args> x[5] x[37] </args>
      <args> x[5] x[41] </args>
      <args> x[5] x[55] </args>
      <args> x[5] x[66] </args>
      <args> x[5] x[68] </args>
      <args> x[5] x[74] </args>
      <args> x[5] x[81] </args>
      <args> x[5] x[108] </args>
      <args> x[5] x[119] </args>
      <args> x[5] x[122] </args>
      <args> x[6] x[13] </args>
      <args> x[6] x[20] </args>
      <args> x[6] x[40] </args>
      <args> x[6] x[41] </args>
      <args> x[6] x[50] </args>
      <args> x[6] x[72] </args>
      <args> x[6] x[76] </args>
      <args> x[6] x[97] </args>
      <args> x[7] x[14] </args>
      <args> x[7] x[18] </args>
      <args> x[7] x[20] </args>
      <args> x[7] x[41] </args>
      <args> x[7] x[56] </args>
      <args> x[7] x[57] </args>
      <args> x[7] x[61] </args>
      <args> x[7] x[64] </args>
      <args> x[7] x[102] </args>
      <args> x[7] x[104] </args>
      <args> x[7] x[109] </args>
      <args> x[8] x[13] </args>
      <args> x[8] x[27] </args>
      <args> x[8] x[48] </args>
      <args> x[8] x[51] </args>
      <args> x[8] x[60] </args>
      <args> x[8] x[65] </args>
      <args> x[8] x[72] </args>
      <args> x[8] x[76] </args>
      <args> x[8] x[83] </args>
      <args> x[8] x[90] </args>
      <args> x[8] x[95] </args>
      <args> x[8] x[99] </args>
      <args> x[8] x[100] </args>
      <args> x[8] x[110] </args>
      <args> x[9] x[15] </args>
      <args> x[9] x[24] </args>
      <args> x[9] x[30] </args>
      <args> x[9] x[32] </args>
      <args> x[9] x[45] </args>
      <args> x[9] x[61] </args>
      <args> x[9] x[66] </args>
      <args> x[9] x[80] </args>
      <args> x[9] x[86] </args>
      <args> x[9] x[109] </args>
      <args> x[9] x[117] </args>
      <args> x[10] x[18] </args>
      <args> x[10] x[31] </args>
      <args> x[10] x[62] </args>
      <args> x[10] x[66] </args>
      <args> x[10] x[70] </args>
      <args> x[10] x[76] </args>
      <args> x[10] x[87] </args>
      <args> x[10] x[95] </args>
      <args> x[10] x[102] </args>
      <args> x[10] x[105] </args>
      <args> x[10] x[120] </args>
      <args> x[10] x[121] </args>
      <args> x[11] x[15] </args>
      <args> x[11] x[17] </args>
      <args> x[11] x[33] </args>
      <args> x[11] x[34] </args>
      <args> x[11] x[41] </args>
      <args> x[11] x[45] </args>
      <args> x[11] x[46] </args>
      <args> x[11] x[51] </args>
      <args> x[11] x[71] </args>
      <args> x[11] x[72] </args>
      <args> x[11] x[99] </args>
      <args> x[11] x[102] </args>
      <args> x[12] x[13] </args>
      <args> x[12] x[22] </args>
      <args> x[12] x[36] </args>
      <args> x[12] x[45] </args>
      <args> x[12] x[82] </args>
      <args> x[12] x[83] </args>
      <args> x[12] x[95] </args>
      <args> x[12] x[98] </args>
      <args> x[12] x[100] </args>
      <args> x[12] x[115] </args>
      <args> x[12] x[118] </args>
      <args> x[13] x[51] </args>
      <args> x[13] x[56] </args>
      <args> x[13] x[60] </args>
      <args> x[13] x[65] </args>
      <args> x[13] x[75] </args>
      <args> x[13] x[78] </args>
      <args> x[13] x[79] </args>
      <args> x[13] x[85] </args>
      <args> x[13] x[86] </args>
      <args> x[13] x[99] </args>
      <args> x[13] x[102] </args>
      <args> x[14] x[29] </args>
      <args> x[14] x[34] </args>
      <args> x[14] x[54] </args>
      <args> x[14] x[65] </args>
      <args> x[14] x[68] </args>
      <args> x[14] x[91] </args>
      <args> x[14] x[92] </args>
      <args> x[14] x[115] </args>
      <args> x[15] x[34] </args>
      <args> x[15] x[40] </args>
      <args> x[15] x[44] </args>
      <args> x[15] x[58] </args>
      <args> x[15] x[61] </args>
      <args> x[15] x[77] </args>
      <args> x[15] x[86] </args>
      <args> x[15] x[97] </args>
      <args> x[15] x[103] </args>
      <args> x[15] x[104] </args>
      <args> x[15] x[105] </args>
      <args> x[15] x[113] </args>
      <args> x[16] x[21] </args>
      <args> x[16] x[27] </args>
      <args> x[16] x[37] </args>
      <args> x[16] x[50] </args>
      <args> x[16] x[51] </args>
      <args> x[16] x[57] </args>
      <args> x[16] x[60] </args>
      <args> x[16] x[83] </args>
      <args> x[16] x[93] </args>
      <args> x[16] x[97] </args>
      <args> x[16] x[98] </args>
      <args> x[16] x[101] </args>
      <args> x[16] x[111] </args>
      <args> x[16] x[112] </args>
      <args> x[16] x[121] </args>
      <args> x[17] x[31] </args>
      <args> x[17] x[65] </args>
      <args> x[17] x[74] </args>
      <args> x[17] x[83] </args>
      <args> x[17] x[89] </args>
      <args> x[17] x[113] </args>
      <args> x[17] x[122] </args>
      <args> x[18] x[27] </args>
      <args> x[18] x[41] </args>
      <args> x[18] x[47] </args>
      <args> x[18] x[65] </args>
      <args> x[18] x[97] </args>
      <args> x[18] x[112] </args>
      <args> x[18] x[113] </args>
      <args> x[19] x[35] </args>
      <args> x[19] x[46] </args>
      <args> x[19] x[80] </args>
      <args> x[19] x[84] </args>
      <args> x[19] x[96] </args>
      <args> x[19] x[101] </args>
      <args> x[19] x[123] </args>
      <args> x[20] x[23] </args>
      <args> x[20] x[64] </args>
      <args> x[20] x[73] </args>
      <args> x[20] x[83] </args>
      <args> x[20] x[91] </args>
      <args> x[21] x[36] </args>
      <args> x[21] x[40] </args>
      <args> x[21] x[49] </args>
      <args> x[21] x[53] </args>
      <args> x[21] x[66] </args>
      <args> x[21] x[67] </args>
      <args> x[21] x[81] </args>
      <args> x[21] x[84] </args>
      <args> x[21] x[85] </args>
      <args> x[21] x[89] </args>
      <args> x[21] x[90] </args>
      <args> x[21] x[119] </args>
      <args> x[22] x[49] </args>
      <args> x[22] x[70] </args>
      <args> x[22] x[97] </args>
      <args> x[22] x[109] </args>
      <args> x[22] x[112] </args>
      <args> x[22] x[114] </args>
      <args> x[22] x[122] </args>
      <args> x[23] x[28] </args>
      <args> x[23] x[34] </args>
      <args> x[23] x[44] </args>
      <args> x[23] x[47] </args>
      <args> x[23] x[49] </args>
      <args> x[23] x[61] </args>
      <args> x[23] x[62] </args>
      <args> x[23] x[72] </args>
      <args> x[23] x[75] </args>
      <args> x[23] x[83] </args>
      <args> x[23] x[87] </args>
      <args> x[23] x[90] </args>
      <args> x[23] x[111] </args>
      <args> x[23] x[119] </args>
      <args> x[24] x[41] </args>
      <args> x[24] x[45] </args>
      <args> x[24] x[54] </args>
      <args> x[24] x[68] </args>
      <args> x[24] x[73] </args>
      <args> x[24] x[105] </args>
      <args> x[24] x[110] </args>
      <args> x[25] x[38] </args>
      <args> x[25] x[45] </args>
      <args> x[25] x[56] </args>
      <args> x[25] x[64] </args>
      <args> x[25] x[71] </args>
      <args> x[25] x[81] </args>
      <args> x[25] x[87] </args>
      <args> x[25] x[92] </args>
      <args> x[25] x[115] </args>
      <args> x[25] x[116] </args>
      <args> x[26] x[30] </args>
      <args> x[26] x[35] </args>
      <args> x[26] x[50] </args>
      <args> x[26] x[69] </args>
      <args> x[26] x[91] </args>
      <args> x[26] x[97] </args>
      <args> x[26] x[98] </args>
      <args> x[26] x[102] </args>
      <args> x[26] x[105] </args>
      <args> x[26] x[115] </args>
      <args> x[26] x[119] </args>
      <args> x[26] x[123] </args>
      <args> x[27] x[29] </args>
      <args> x[27] x[51] </args>
      <args> x[27] x[52] </args>
      <args> x[27] x[65] </args>
      <args> x[27] x[69] </args>
      <args> x[27] x[73] </args>
      <args> x[27] x[80] </args>
      <args> x[28] x[42] </args>
      <args> x[28] x[53] </args>
      <args> x[28] x[62] </args>
      <args> x[28] x[63] </args>
      <args> x[28] x[68] </args>
      <args> x[28] x[117] </args>
      <args> x[29] x[46] </args>
      <args> x[29] x[52] </args>
      <args> x[29] x[56] </args>
      <args> x[29] x[62] </args>
      <args> x[29] x[75] </args>
      <args> x[30] x[60] </args>
      <args> x[30] x[66] </args>
      <args> x[30] x[69] </args>
      <args> x[30] x[73] </args>
      <args> x[30] x[84] </args>
      <args> x[30] x[90] </args>
      <args> x[30] x[114] </args>
      <args> x[30] x[118] </args>
      <args> x[31] x[33] </args>
      <args> x[31] x[49] </args>
      <args> x[31] x[61] </args>
      <args> x[31] x[69] </args>
      <args> x[31] x[75] </args>
      <args> x[31] x[84] </args>
      <args> x[31] x[85] </args>
      <args> x[31] x[97] </args>
      <args> x[31] x[100] </args>
      <args> x[31] x[102] </args>
      <args> x[31] x[104] </args>
      <args> x[31] x[111] </args>
      <args> x[32] x[42] </args>
      <args> x[32] x[62] </args>
      <args> x[32] x[85] </args>
      <args> x[32] x[92] </args>
      <args> x[32] x[120] </args>
      <args> x[32] x[123] </args>
      <args> x[33] x[43] </args>
      <args> x[33] x[69] </args>
      <args> x[33] x[102] </args>
      <args> x[33] x[124] </args>
      <args> x[34] x[35] </args>
      <args> x[34] x[40] </args>
      <args> x[34] x[42] </args>
      <args> x[34] x[50] </args>
      <args> x[34] x[55] </args>
      <args> x[34] x[62] </args>
      <args> x[34] x[66] </args>
      <args> x[34] x[67] </args>
      <args> x[34] x[75] </args>
      <args> x[34] x[95] </args>
      <args> x[34] x[116] </args>
      <args> x[35] x[45] </args>
      <args> x[35] x[46] </args>
      <args> x[35] x[56] </args>
      <args> x[35] x[60] </args>
      <args> x[35] x[64] </args>
      <args> x[35] x[90] </args>
      <args> x[35] x[101] </args>
      <args> x[35] x[102] </args>
      <args> x[36] x[39] </args>
      <args> x[36] x[48] </args>
      <args> x[36] x[58] </args>
      <args> x[36] x[61] </args>
      <args> x[36] x[64] </args>
      <args> x[36] x[65] </args>
      <args> x[36] x[66] </args>
      <args> x[36] x[76] </args>
      <args> x[36] x[81] </args>
      <args> x[36] x[87] </args>
      <args> x[37] x[55] </args>
      <args> x[37] x[62] </args>
      <args> x[37] x[87] </args>
      <args> x[37] x[93] </args>
      <args> x[37] x[102] </args>
      <args> x[37] x[115] </args>
      <args> x[38] x[62] </args>
      <args> x[38] x[71] </args>
      <args> x[38] x[73] </args>
      <args> x[38] x[78] </args>
      <args> x[38] x[93] </args>
      <args> x[38] x[104] </args>
      <args> x[39] x[70] </args>
      <args> x[39] x[71] </args>
      <args> x[39] x[75] </args>
      <args> x[39] x[81] </args>
      <args> x[39] x[84] </args>
      <args> x[39] x[91] </args>
      <args> x[39] x[110] </args>
      <args> x[39] x[118] </args>
      <args> x[39] x[123] </args>
      <args> x[40] x[49] </args>
      <args> x[40] x[50] </args>
      <args> x[40] x[79] </args>
      <args> x[40] x[88] </args>
      <args> x[40] x[107] </args>
      <args> x[40] x[109] </args>
      <args> x[40] x[121] </args>
      <args> x[41] x[50] </args>
      <args> x[41] x[58] </args>
      <args> x[41] x[63] </args>
      <args> x[41] x[83] </args>
      <args> x[41] x[87] </args>
      <args> x[41] x[101] </args>
      <args> x[41] x[105] </args>
      <args> x[41] x[106] </args>
      <args> x[41] x[107] </args>
      <args> x[41] x[121] </args>
      <args> x[42] x[48] </args>
      <args> x[42] x[54] </args>
      <args> x[42] x[56] </args>
      <args> x[42] x[67] </args>
      <args> x[42] x[77] </args>
      <args> x[43] x[52] </args>
      <args> x[43] x[55] </args>
      <args> x[43] x[86] </args>
      <args> x[43] x[89] </args>
      <args> x[43] x[96] </args>
      <args> x[43] x[119] </args>
      <args> x[43] x[121] </args>
      <args> x[44] x[61] </args>
      <args> x[44] x[63] </args>
      <args> x[44] x[66] </args>
      <args> x[44] x[82] </args>
      <args> x[44] x[88] </args>
      <args> x[44] x[92] </args>
      <args> x[44] x[106] </args>
      <args> x[44] x[121] </args>
      <args> x[45] x[46] </args>
      <args> x[45] x[90] </args>
      <args> x[45] x[105] </args>
      <args> x[45] x[110] </args>
      <args> x[46] x[49] </args>
      <args> x[46] x[60] </args>
      <args> x[46] x[66] </args>
      <args> x[46] x[98] </args>
      <args> x[46] x[102] </args>
      <args> x[46] x[104] </args>
      <args> x[46] x[114] </args>
      <args> x[46] x[119] </args>
      <args> x[46] x[123] </args>
      <args> x[47] x[50] </args>
      <args> x[47] x[51] </args>
      <args> x[47] x[53] </args>
      <args> x[47] x[64] </args>
      <args> x[47] x[72] </args>
      <args> x[47] x[85] </args>
      <args> x[47] x[92] </args>
      <args> x[47] x[99] </args>
      <args> x[47] x[110] </args>
      <args> x[48] x[51] </args>
      <args> x[48] x[54] </args>
      <args> x[48] x[57] </args>
      <args> x[48] x[77] </args>
      <args> x[48] x[83] </args>
      <args> x[48] x[97] </args>
      <args> x[48] x[98] </args>
      <args> x[48] x[103] </args>
      <args> x[48] x[106] </args>
      <args> x[48] x[109] </args>
      <args> x[48] x[113] </args>
      <args> x[48] x[124] </args>
      <args> x[49] x[54] </args>
      <args> x[49] x[56] </args>
      <args> x[49] x[72] </args>
      <args> x[49] x[82] </args>
      <args> x[49] x[90] </args>
      <args> x[49] x[109] </args>
      <args> x[49] x[116] </args>
      <args> x[50] x[58] </args>
      <args> x[50] x[62] </args>
      <args> x[50] x[72] </args>
      <args> x[50] x[81] </args>
      <args> x[50] x[88] </args>
      <args> x[50] x[105] </args>
      <args> x[50] x[106] </args>
      <args> x[50] x[107] </args>
      <args> x[50] x[113] </args>
      <args> x[50] x[116] </args>
      <args> x[50] x[121] </args>
      <args> x[51] x[57] </args>
      <args> x[51] x[60] </args>
      <args> x[51] x[62] </args>
      <args> x[51] x[79] </args>
      <args> x[51] x[91] </args>
      <args> x[51] x[101] </args>
      <args> x[51] x[110] </args>
      <args> x[51] x[117] </args>
      <args> x[51] x[120] </args>
      <args> x[52] x[61] </args>
      <args> x[52] x[67] </args>
      <args> x[52] x[83] </args>
      <args> x[52] x[89] </args>
      <args> x[52] x[90] </args>
      <args> x[52] x[110] </args>
      <args> x[52] x[112] </args>
      <args> x[52] x[114] </args>
      <args> x[52] x[121] </args>
      <args> x[53] x[54] </args>
      <args> x[53] x[61] </args>
      <args> x[53] x[82] </args>
      <args> x[53] x[96] </args>
      <args> x[53] x[111] </args>
      <args> x[53] x[117] </args>
      <args> x[54] x[57] </args>
      <args> x[54] x[61] </args>
      <args> x[54] x[63] </args>
      <args> x[54] x[76] </args>
      <args> x[54] x[96] </args>
      <args> x[54] x[118] </args>
      <args> x[54] x[123] </args>
      <args> x[55] x[59] </args>
      <args> x[55] x[61] </args>
      <args> x[55] x[70] </args>
      <args> x[55] x[83] </args>
      <args> x[55] x[98] </args>
      <args> x[55] x[104] </args>
      <args> x[55] x[117] </args>
      <args> x[56] x[58] </args>
      <args> x[56] x[59] </args>
      <args> x[56] x[63] </args>
      <args> x[56] x[83] </args>
      <args> x[56] x[113] </args>
      <args> x[57] x[60] </args>
      <args> x[57] x[63] </args>
      <args> x[57] x[64] </args>
      <args> x[57] x[76] </args>
      <args> x[57] x[81] </args>
      <args> x[57] x[96] </args>
      <args> x[57] x[99] </args>
      <args> x[57] x[100] </args>
      <args> x[57] x[107] </args>
      <args> x[57] x[111] </args>
      <args> x[57] x[118] </args>
      <args> x[58] x[68] </args>
      <args> x[58] x[73] </args>
      <args> x[58] x[92] </args>
      <args> x[58] x[102] </args>
      <args> x[58] x[121] </args>
      <args> x[59] x[76] </args>
      <args> x[59] x[94] </args>
      <args> x[59] x[109] </args>
      <args> x[59] x[124] </args>
      <args> x[60] x[76] </args>
      <args> x[60] x[92] </args>
      <args> x[60] x[94] </args>
      <args> x[60] x[95] </args>
      <args> x[60] x[110] </args>
      <args> x[61] x[65] </args>
      <args> x[61] x[74] </args>
      <args> x[61] x[88] </args>
      <args> x[61] x[89] </args>
      <args> x[61] x[91] </args>
      <args> x[61] x[110] </args>
      <args> x[61] x[124] </args>
      <args> x[62] x[68] </args>
      <args> x[62] x[83] </args>
      <args> x[62] x[122] </args>
      <args> x[62] x[123] </args>
      <args> x[63] x[65] </args>
      <args> x[63] x[76] </args>
      <args> x[63] x[90] </args>
      <args> x[63] x[105] </args>
      <args> x[63] x[107] </args>
      <args> x[63] x[114] </args>
      <args> x[63] x[118] </args>
      <args> x[63] x[120] </args>
      <args> x[64] x[68] </args>
      <args> x[64] x[74] </args>
      <args> x[64] x[84] </args>
      <args> x[64] x[102] </args>
      <args> x[65] x[73] </args>
      <args> x[65] x[74] </args>
      <args> x[65] x[100] </args>
      <args> x[65] x[101] </args>
      <args> x[65] x[107] </args>
      <args> x[65] x[111] </args>
      <args> x[65] x[121] </args>
      <args> x[66] x[68] </args>
      <args> x[66] x[115] </args>
      <args> x[67] x[79] </args>
      <args> x[67] x[85] </args>
      <args> x[67] x[90] </args>
      <args> x[67] x[96] </args>
      <args> x[67] x[115] </args>
      <args> x[67] x[118] </args>
      <args> x[68] x[76] </args>
      <args> x[68] x[77] </args>
      <args> x[68] x[78] </args>
      <args> x[68] x[82] </args>
      <args> x[68] x[95] </args>
      <args> x[68] x[96] </args>
      <args> x[68] x[98] </args>
      <args> x[68] x[102] </args>
      <args> x[68] x[108] </args>
      <args> x[69] x[89] </args>
      <args> x[69] x[92] </args>
      <args> x[69] x[93] </args>
      <args> x[69] x[105] </args>
      <args> x[69] x[117] </args>
      <args> x[70] x[86] </args>
      <args> x[70] x[93] </args>
      <args> x[70] x[97] </args>
      <args> x[70] x[109] </args>
      <args> x[70] x[112] </args>
      <args> x[70] x[118] </args>
      <args> x[71] x[72] </args>
      <args> x[71] x[77] </args>
      <args> x[71] x[86] </args>
      <args> x[71] x[90] </args>
      <args> x[71] x[106] </args>
      <args> x[71] x[112] </args>
      <args> x[71] x[123] </args>
      <args> x[72] x[91] </args>
      <args> x[72] x[96] </args>
      <args> x[72] x[104] </args>
      <args> x[73] x[78] </args>
      <args> x[73] x[81] </args>
      <args> x[73] x[88] </args>
      <args> x[73] x[91] </args>
      <args> x[73] x[103] </args>
      <args> x[73] x[106] </args>
      <args> x[74] x[95] </args>
      <args> x[74] x[97] </args>
      <args> x[74] x[108] </args>
      <args> x[75] x[79] </args>
      <args> x[75] x[82] </args>
      <args> x[75] x[86] </args>
      <args> x[75] x[93] </args>
      <args> x[75] x[98] </args>
      <args> x[75] x[103] </args>
      <args> x[75] x[109] </args>
      <args> x[76] x[83] </args>
      <args> x[76] x[94] </args>
      <args> x[76] x[95] </args>
      <args> x[76] x[96] </args>
      <args> x[76] x[100] </args>
      <args> x[76] x[105] </args>
      <args> x[76] x[106] </args>
      <args> x[76] x[109] </args>
      <args> x[77] x[81] </args>
      <args> x[77] x[83] </args>
      <args> x[77] x[90] </args>
      <args> x[77] x[109] </args>
      <args> x[77] x[111] </args>
      <args> x[77] x[114] </args>
      <args> x[78] x[84] </args>
      <args> x[78] x[88] </args>
      <args> x[78] x[110] </args>
      <args> x[79] x[81] </args>
      <args> x[79] x[90] </args>
      <args> x[79] x[96] </args>
      <args> x[79] x[104] </args>
      <args> x[79] x[105] </args>
      <args> x[79] x[113] </args>
      <args> x[79] x[116] </args>
      <args> x[79] x[124] </args>
      <args> x[80] x[81] </args>
      <args> x[80] x[85] </args>
      <args> x[80] x[90] </args>
      <args> x[80] x[93] </args>
      <args> x[80] x[122] </args>
      <args> x[81] x[85] </args>
      <args> x[81] x[105] </args>
      <args> x[81] x[116] </args>
      <args> x[82] x[92] </args>
      <args> x[82] x[97] </args>
      <args> x[82] x[103] </args>
      <args> x[82] x[104] </args>
      <args> x[82] x[107] </args>
      <args> x[82] x[113] </args>
      <args> x[82] x[122] </args>
      <args> x[83] x[88] </args>
      <args> x[83] x[94] </args>
      <args> x[83] x[96] </args>
      <args> x[83] x[100] </args>
      <args> x[83] x[101] </args>
      <args> x[83] x[109] </args>
      <args> x[83] x[115] </args>
      <args> x[83] x[121] </args>
      <args> x[84] x[99] </args>
      <args> x[84] x[103] </args>
      <args> x[84] x[124] </args>
      <args> x[85] x[91] </args>
      <args> x[85] x[101] </args>
      <args> x[87] x[90] </args>
      <args> x[87] x[104] </args>
      <args> x[87] x[105] </args>
      <args> x[87] x[106] </args>
      <args> x[87] x[122] </args>
      <args> x[88] x[97] </args>
      <args> x[88] x[98] </args>
      <args> x[88] x[109] </args>
      <args> x[88] x[114] </args>
      <args> x[88] x[121] </args>
      <args> x[89] x[93] </args>
      <args> x[89] x[96] </args>
      <args> x[90] x[92] </args>
      <args> x[90] x[95] </args>
      <args> x[90] x[119] </args>
      <args> x[91] x[94] </args>
      <args> x[91] x[114] </args>
      <args> x[91] x[122] </args>
      <args> x[92] x[96] </args>
      <args> x[92] x[105] </args>
      <args> x[92] x[114] </args>
      <args> x[92] x[117] </args>
      <args> x[92] x[120] </args>
      <args> x[92] x[122] </args>
      <args> x[93] x[94] </args>
      <args> x[93] x[113] </args>
      <args> x[95] x[96] </args>
      <args> x[95] x[112] </args>
      <args> x[95] x[116] </args>
      <args> x[95] x[121] </args>
      <args> x[96] x[100] </args>
      <args> x[96] x[109] </args>
      <args> x[97] x[110] </args>
      <args> x[97] x[113] </args>
      <args> x[98] x[119] </args>
      <args> x[98] x[124] </args>
      <args> x[99] x[105] </args>
      <args> x[99] x[114] </args>
      <args> x[100] x[121] </args>
      <args> x[101] x[103] </args>
      <args> x[101] x[123] </args>
      <args> x[102] x[114] </args>
      <args> x[102] x[116] </args>
      <args> x[103] x[104] </args>
      <args> x[103] x[121] </args>
      <args> x[104] x[123] </args>
      <args> x[104] x[124] </args>
      <args> x[106] x[115] </args>
      <args> x[106] x[121] </args>
      <args> x[107] x[109] </args>
      <args> x[107] x[112] </args>
      <args> x[107] x[118] </args>
      <args> x[107] x[121] </args>
      <args> x[108] x[114] </args>
      <args> x[108] x[117] </args>
      <args> x[109] x[114] </args>
      <args> x[109] x[117] </args>
      <args> x[109] x[123] </args>
      <args> x[109] x[124] </args>
      <args> x[111] x[112] </args>
      <args> x[112] x[120] </args>
      <args> x[113] x[114] </args>
      <args> x[113] x[118] </args>
      <args> x[114] x[117] </args>
      <args> x[115] x[118] </args>
      <args> x[115] x[122] </args>
      <args> x[116] x[118] </args>
      <args> x[116] x[123] </args>
      <args> x[117] x[118] </args>
      <args> x[117] x[120] </args>
      <args> x[121] x[123] </args>
    </group>
  </constraints>
  <objectives>
    <minimize type="maximum"> x[] </minimize>
  </objectives>
</instance>
